(declare-const a Int)
(declare-const b Int)
(declare-const c Int)
(declare-const delta Int)
(assert (not (= a 0)))
(assert (>= (- (pow b 2) (* (* 4 a) c)) 0))
(assert (not (> (- (pow b 2) (* (* 4 a) c)) 0)))
(check-sat)
(model)
